Linux optc-01-12 4.15.0-58-generic #64-Ubuntu SMP Tue Aug 6 11:12:41 UTC 2019 x86_64 x86_64 x86_64 GNU/Linux

top - 03:20:43 up 1 day, 17:21,  0 users,  load average: 0,48, 0,74, 0,82
Tasks: 289 gesamt,   1 laufend, 149 schlafend,   0 gestoppt,   0 Zombie
%CPU(s):  7,1 be,  0,3 sy,  0,0 ni, 92,6 un,  0,0 wa,  0,0 hi,  0,0 si,  0,0 st
KiB Spch : 97514992 gesamt, 95379952 frei,   652432 belegt,  1482616 Puff/Cache
KiB Swap:  8388604 gesamt,  8388604 frei,        0 belegt. 96120832 verfü Spch 

  PID USER      PR  NI    VIRT    RES    SHR S  %CPU %MEM     ZEIT+ BEFEHL
    1 root      20   0  233860   9368   6660 S   0,0  0,0   0:13.00 systemd
    2 root      20   0       0      0      0 S   0,0  0,0   0:00.15 kthreadd
    3 root      20   0       0      0      0 I   0,0  0,0   0:02.48 kworker/0:0
    4 root       0 -20       0      0      0 I   0,0  0,0   0:00.00 kworker/0:+
    6 root      20   0       0      0      0 I   0,0  0,0   0:00.00 kworker/u3+
    7 root       0 -20       0      0      0 I   0,0  0,0   0:00.00 mm_percpu_+
    8 root      20   0       0      0      0 S   0,0  0,0   0:00.02 ksoftirqd/0
    9 root      20   0       0      0      0 I   0,0  0,0   0:14.53 rcu_sched

hard time limit: 04:10:00
hard mem limit: 55100

SLURM jobID: 2182894

@01 /nfs/optimi/kombadon/IP/coral/nug08.mps.gz ===========
-----------------------------
Fr 23. Aug 03:20:43 CEST 2019
-----------------------------
@03 1566523243
@05 7200
SCIP version 6.0.0 [precision: 8 byte] [memory: block] [mode: optimized] [LP solver: CPLEX 12.8.0.0] [GitHash: 41ab6e0014]
Copyright (C) 2002-2018 Konrad-Zuse-Zentrum fuer Informationstechnik Berlin (ZIB)

External codes: 
  Readline 7.0         GNU library for command line editing (gnu.org/s/readline)
  CPLEX 12.8.0.0       Linear Programming Solver developed by IBM (www.cplex.com)
  CppAD 20180000.0     Algorithmic Differentiation of C++ algorithms developed by B. Bell (www.coin-or.org/CppAD)
  ZLIB 1.2.11          General purpose compression library by J. Gailly and M. Adler (zlib.net)
  GMP 6.1.2            GNU Multiple Precision Arithmetic Library developed by T. Granlund (gmplib.org)
  bliss 0.73p          Computing Graph Automorphism Groups by T. Junttila and P. Kaski (http://www.tcs.hut.fi/Software/bliss/)

user parameter file <scip.set> not found - using default parameters

SCIP> 
SCIP> set load /home/optimi/bzfhende/opti/scip-opti/check/../settings/enable_treeeprofile.set
loaded parameter file </home/optimi/bzfhende/opti/scip-opti/check/../settings/enable_treeprofile.set>
SCIP> set misc referencevalue 214
misc/referencevalue = 214
SCIP> set limits time 7200
limits/time = 7200
SCIP> set limits nodes 2100000000
limits/nodes = 2100000000
SCIP> set limits memory 50000
limits/memory = 50000
SCIP> set lp advanced threads 1
lp/threads = 1
SCIP> set timing clocktype 1
timing/clocktype = 1
SCIP> set display freq 10000
display/freq = 10000
SCIP> set memory savefac 1.0
memory/savefac = 1
SCIP> set save /home/optimi/bzfhende/opti/scip-opti/check/treesize.estimation.jouurnal.3/bzfhende.MMMc.430_nug08.scip.M640.enable_treeprofile.set
saved parameter file </home/optimi/bzfhende/opti/scip-opti/check/treesize.estimation.journal.3/bzfhende.MMMc.430_nug08.scip.M640.enable_treeprofile.set>
SCIP> read /nfs/optimi/kombadon/IP/coral/nug08.mps.gz

read problem </nfs/optimi/kombadon/IP/coral/nug08.mps.gz>
============

original problem has 1632 variables (1632 bin, 0 int, 0 impl, 0 cont) and 912 constraints
SCIP> display parameters

number of parameters = 2448
non-default parameter settings:
display/freq = 10000
limits/time = 7200
limits/nodes = 2100000000
limits/memory = 50000
lp/threads = 1
memory/savefac = 1
misc/referencevalue = 214
presolving/maxrestarts = 0
estimates/profile/enabled = TRUE
estimates/profile/maxdepthfactor = 10
estimates/profile/freq = 0

SCIP> optimize

Activating tree profile data collection
presolving:
(round 1, exhaustive) 0 del vars, 0 del conss, 0 add conss, 0 chg bounds, 0 chg sides, 0 chg coeffs, 912 upgd conss, 0 impls, 912 clqs
   (0.9s) probing: 1000/1632 (61.3%) - 0 fixings, 0 aggregations, 711059 implications, 0 bound changes
   (0.9s) probing: 1001/1632 (61.3%) - 0 fixings, 0 aggregations, 711472 implications, 0 bound changes
   (0.9s) probing aborted: 1000/1000 successive useless probings
presolving (2 rounds: 2 fast, 2 medium, 2 exhaustive):
 0 deleted vars, 0 deleted constraints, 0 added constraints, 0 tightened bounds, 0 added holes, 0 changed sides, 0 changed coefficients
 0 implications, 712384 cliques
presolved problem has 1632 variables (1632 bin, 0 int, 0 impl, 0 cont) and 912 constraints
    912 constraints of type <setppc>
transformed objective value is always integral (scale: 2)
Presolving Time: 0.95

 time | node  | left  |LP iter|LP it/n| mem |mdpt |frac |vars |cons |cols |rows |cuts |confs|strbr|  dualbound   | primalbound  |  gap   
Q 1.2s|     1 |     0 |     0 |     - | 148M|   0 |   - |1632 | 912 |1632 | 912 |   0 |   0 |   0 | 0.000000e+00 | 2.960000e+02 |    Inf 
k 1.2s|     1 |     0 |     0 |     - | 148M|   0 |   - |1632 | 912 |1632 | 912 |   0 |   0 |   0 | 0.000000e+00 | 2.720000e+02 |    Inf 
  2.0s|     1 |     0 |  8629 |     - | 148M|   0 | 428 |1632 | 948 |1632 | 912 |   0 |  36 |   0 | 2.035000e+02 | 2.720000e+02 |  33.66%
  3.9s|     1 |     0 |  9144 |     - | 149M|   0 | 428 |1632 | 948 |1632 | 916 |   4 |  36 |   0 | 2.035000e+02 | 2.720000e+02 |  33.66%
  4.2s|     1 |     0 |  9548 |     - | 149M|   0 | 488 |1632 | 948 |1632 | 918 |   6 |  36 |   0 | 2.035000e+02 | 2.720000e+02 |  33.66%
  4.7s|     1 |     0 | 12409 |     - | 149M|   0 | 648 |1632 | 950 |1632 | 922 |  10 |  38 |   0 | 2.038750e+02 | 2.720000e+02 |  33.42%
  5.0s|     1 |     0 | 13116 |     - | 150M|   0 | 644 |1632 | 960 |1632 | 924 |  12 |  48 |   0 | 2.038750e+02 | 2.720000e+02 |  33.42%
  5.3s|     1 |     0 | 14299 |     - | 150M|   0 | 648 |1632 | 966 |1632 | 927 |  15 |  54 |   0 | 2.038987e+02 | 2.720000e+02 |  33.40%
  5.7s|     1 |     0 | 15263 |     - | 151M|   0 | 678 |1632 | 971 |1632 | 929 |  17 |  59 |   0 | 2.039294e+02 | 2.720000e+02 |  33.38%
  5.9s|     1 |     0 | 15307 |     - | 151M|   0 | 680 |1632 | 973 |1632 | 931 |  19 |  61 |   0 | 2.039294e+02 | 2.720000e+02 |  33.38%
  6.2s|     1 |     0 | 15586 |     - | 151M|   0 | 683 |1632 | 973 |1632 | 934 |  22 |  61 |   0 | 2.039362e+02 | 2.720000e+02 |  33.38%
  6.5s|     1 |     0 | 15838 |     - | 151M|   0 | 680 |1632 | 977 |1632 | 937 |  25 |  65 |   0 | 2.039438e+02 | 2.720000e+02 |  33.37%
  6.8s|     1 |     0 | 16106 |     - | 151M|   0 | 697 |1632 | 984 |1632 | 940 |  28 |  72 |   0 | 2.039549e+02 | 2.720000e+02 |  33.36%
  7.3s|     1 |     0 | 16341 |     - | 151M|   0 | 703 |1632 | 989 |1632 | 942 |  31 |  77 |   0 | 2.039714e+02 | 2.720000e+02 |  33.35%
  7.6s|     1 |     0 | 16506 |     - | 151M|   0 | 712 |1632 | 992 |1632 | 944 |  33 |  80 |   0 | 2.039885e+02 | 2.720000e+02 |  33.34%
 time | node  | left  |LP iter|LP it/n| mem |mdpt |frac |vars |cons |cols |rows |cuts |confs|strbr|  dualbound   | primalbound  |  gap   
  7.9s|     1 |     0 | 16740 |     - | 152M|   0 | 715 |1632 | 993 |1632 | 949 |  38 |  81 |   0 | 2.040053e+02 | 2.720000e+02 |  33.33%
  8.2s|     1 |     0 | 16878 |     - | 152M|   0 | 721 |1632 | 998 |1632 | 951 |  40 |  86 |   0 | 2.040125e+02 | 2.720000e+02 |  33.33%
  8.5s|     1 |     0 | 17157 |     - | 152M|   0 | 709 |1632 |1003 |1632 | 953 |  42 |  91 |   0 | 2.040298e+02 | 2.720000e+02 |  33.31%
F11.1s|     1 |     0 | 41371 |     - | 152M|   0 |   0 |1632 | 985 |1632 | 953 |  42 |  96 |   0 | 2.040298e+02 | 2.140000e+02 |   4.89%
 11.3s|     1 |     0 | 41371 |     - | 152M|   0 | 709 |1632 | 985 |1632 | 953 |  42 |  96 |   0 | 2.040298e+02 | 2.140000e+02 |   4.89%
 11.5s|     1 |     0 | 41371 |     - | 152M|   0 | 709 |1632 | 990 |1632 | 953 |  42 | 101 |   0 | 2.040298e+02 | 2.140000e+02 |   4.89%
 11.9s|     1 |     0 | 41696 |     - | 152M|   0 | 712 |1632 | 990 |1632 | 959 |  48 | 101 |   0 | 2.040783e+02 | 2.140000e+02 |   4.86%
 12.0s|     1 |     0 | 41696 |     - | 152M|   0 | 712 |1632 | 994 |1632 | 959 |  48 | 105 |   0 | 2.040783e+02 | 2.140000e+02 |   4.86%
 12.3s|     1 |     0 | 42443 |     - | 152M|   0 | 688 |1632 | 997 |1632 | 959 |  48 | 113 |   5 | 2.043729e+02 | 2.140000e+02 |   4.71%
 12.4s|     1 |     0 | 42443 |     - | 152M|   0 | 688 |1632 |1000 |1632 | 959 |  48 | 116 |   5 | 2.043729e+02 | 2.140000e+02 |   4.71%
 12.7s|     1 |     0 | 43052 |     - | 153M|   0 | 704 |1632 | 999 |1632 | 966 |  55 | 116 |   5 | 2.045535e+02 | 2.140000e+02 |   4.62%
 12.8s|     1 |     0 | 43052 |     - | 153M|   0 | 704 |1632 |1003 |1632 | 966 |  55 | 120 |   5 | 2.045535e+02 | 2.140000e+02 |   4.62%
 13.2s|     1 |     0 | 44515 |     - | 153M|   0 | 675 |1632 |1003 |1632 | 966 |  55 | 125 |  10 | 2.057310e+02 | 2.140000e+02 |   4.02%
 13.3s|     1 |     0 | 44515 |     - | 153M|   0 | 675 |1632 |1008 |1632 | 966 |  55 | 130 |  10 | 2.057310e+02 | 2.140000e+02 |   4.02%
 13.6s|     1 |     0 | 44791 |     - | 153M|   0 | 678 |1632 |1008 |1632 | 970 |  59 | 130 |  10 | 2.058326e+02 | 2.140000e+02 |   3.97%
 time | node  | left  |LP iter|LP it/n| mem |mdpt |frac |vars |cons |cols |rows |cuts |confs|strbr|  dualbound   | primalbound  |  gap   
 13.7s|     1 |     0 | 44791 |     - | 153M|   0 | 678 |1632 |1013 |1632 | 970 |  59 | 135 |  10 | 2.058326e+02 | 2.140000e+02 |   3.97%
SCIP nodes: 1 Estimation: -1
 14.0s|     1 |     0 | 46559 |     - | 153M|   0 |   - |1632 |1014 |1632 | 970 |  59 | 141 |  15 | 2.140000e+02 | 2.140000e+02 |   0.00%
Report 1
Time Elapsed: 13.98
  Tree Data        : 1 nodes (1 visited, 0 inner, 1 leaves, 0 open), progress: 1.0000
Tree Estimation    :       estim       value       trend  resolution      smooth
  wbe              :          -1           -           -           -           -
  tree profile     :          -1           -           -           -           -
  gap              :           1     1.00000     1.00000           1           1
  progress         :           1     1.00000     1.00000           1           1
  leaf-frequency   :           1     0.50000     1.00000           1           1
  ssg              :           1     0.00000    -1.00000           1           1
  open-nodes       :           1     0.00000     0.00000           1           1
End of Report 1


SCIP Status        : problem is solved [optimal solution found]
Solving Time (sec) : 13.98
Solving Nodes      : 1
Primal Bound       : +2.14000000000000e+02 (3 solutions)
Dual Bound         : +2.14000000000000e+02
Gap                : 0.00 %

SCIP> display statistics

SCIP Status        : problem is solved [optimal solution found]
Total Time         :      13.98
  solving          :      13.98
  presolving       :       0.95 (included in solving)
  reading          :       0.00
  copying          :       0.02 (2 #copies) (minimal 0.01, maximal 0.01, average 0.01)
Original Problem   :
  Problem name     : ps
  Variables        : 1632 (1632 binary, 0 integer, 0 implicit integer, 0 continuous)
  Constraints      : 912 initial, 912 maximal
  Objective        : minimize, 1008 non-zeros (abs.min = 2, abs.max = 80)
Presolved Problem  :
  Problem name     : t_ps
  Variables        : 1632 (1632 binary, 0 integer, 0 implicit integer, 0 continuous)
  Constraints      : 912 initial, 1014 maximal
  Objective        : minimize, 1008 non-zeros (abs.min = 1, abs.max = 40)
Presolvers         :   ExecTime  SetupTime  Calls  FixedVars   AggrVars   ChgTypes  ChgBounds   AddHoles    DelCons    AddCons   ChgSides   ChgCoefs
  boundshift       :       0.00       0.00      0          0          0          0          0          0          0          0          0          0
  convertinttobin  :       0.00       0.00      0          0          0          0          0          0          0          0          0          0
  domcol           :       0.00       0.00      1          0          0          0          0          0          0          0          0          0
  dualagg          :       0.00       0.00      0          0          0          0          0          0          0          0          0          0
  dualcomp         :       0.00       0.00      0          0          0          0          0          0          0          0          0          0
  dualinfer        :       0.00       0.00      0          0          0          0          0          0          0          0          0          0
  gateextraction   :       0.00       0.00      0          0          0          0          0          0          0          0          0          0
  implics          :       0.00       0.00      2          0          0          0          0          0          0          0          0          0
  inttobinary      :       0.00       0.00      0          0          0          0          0          0          0          0          0          0
  qpkktref         :       0.00       0.00      0          0          0          0          0          0          0          0          0          0
  redvub           :       0.00       0.00      0          0          0          0          0          0          0          0          0          0
  sparsify         :       0.01       0.00      1          0          0          0          0          0          0          0          0          0
  stuffing         :       0.00       0.00      0          0          0          0          0          0          0          0          0          0
  symbreak         :       0.00       0.00      0          0          0          0          0          0          0          0          0          0
  symmetry         :       0.00       0.00      0          0          0          0          0          0          0          0          0          0
  trivial          :       0.00       0.00      2          0          0          0          0          0          0          0          0          0
  tworowbnd        :       0.00       0.00      0          0          0          0          0          0          0          0          0          0
  dualfix          :       0.00       0.00      2          0          0          0          0          0          0          0          0          0
  genvbounds       :       0.00       0.00      0          0          0          0          0          0          0          0          0          0
  orbitalfixing    :       0.00       0.00      0          0          0          0          0          0          0          0          0          0
  probing          :       0.93       0.00      1          0          0          0          0          0          0          0          0          0
  pseudoobj        :       0.00       0.00      0          0          0          0          0          0          0          0          0          0
  vbounds          :       0.00       0.00      1          0          0          0          0          0          0          0          0          0
  setppc           :       0.00       0.00      3          0          0          0          0          0          0          0          0          0
  linear           :       0.01       0.00      2          0          0          0          0          0          0          0          0          0
  logicor          :       0.00       0.00      0          0          0          0          0          0          0          0          0          0
  benders          :       0.00       0.00      0          0          0          0          0          0          0          0          0          0
  components       :       0.00       0.00      1          0          0          0          0          0          0          0          0          0
  root node        :          -          -      -        434          -          -        434          -          -          -          -          -
Constraints        :     Number  MaxNumber  #Separate #Propagate    #EnfoLP    #EnfoRelax  #EnfoPS    #Check   #ResProp    Cutoffs    DomReds       Cuts    Applied      Conss   Children
  benderslp        :          0          0          0          0          3          0          0         14          0          0          0          0          0          0          0
  integral         :          0          0          0          0          3          0          0         14          0          1          0          0          0          4          0
  setppc           :        912+       917         18       4453          0          0          0          9       2834         34          0          0          0          0          0
  logicor          :          0+        97         18        360          0          0          0          0         29          2          0          0          0          0          0
  benders          :          0          0          0          0          0          0          0          4          0          0          0          0          0          0          0
  countsols        :          0          0          0          0          0          0          0          4          0          0          0          0          0          0          0
  components       :          0          0          0          0          0          0          0          0          0          0          0          0          0          0          0
Constraint Timings :  TotalTime  SetupTime   Separate  Propagate     EnfoLP     EnfoPS     EnfoRelax   Check    ResProp    SB-Prop
  benderslp        :       0.00       0.00       0.00       0.00       0.00       0.00       0.00       0.00       0.00       0.00
  integral         :       0.44       0.00       0.00       0.00       0.44       0.00       0.00       0.00       0.00       0.00
  setppc           :       0.30       0.00       0.00       0.28       0.00       0.00       0.00       0.00       0.01       0.01
  logicor          :       0.00       0.00       0.00       0.00       0.00       0.00       0.00       0.00       0.00       0.00
  benders          :       0.00       0.00       0.00       0.00       0.00       0.00       0.00       0.00       0.00       0.00
  countsols        :       0.00       0.00       0.00       0.00       0.00       0.00       0.00       0.00       0.00       0.00
  components       :       0.00       0.00       0.00       0.00       0.00       0.00       0.00       0.00       0.00       0.00
Propagators        : #Propagate   #ResProp    Cutoffs    DomReds
  dualfix          :          8          0          0          0
  genvbounds       :          0          0          0          0
  nlobbt           :          0          0          0          0
  obbt             :          0          0          0          0
  orbitalfixing    :          0          0          0          0
  probing          :          0          0          0          0
  pseudoobj        :         46          0          0          0
  redcost          :         32          0          0        417
  rootredcost      :          0          0          0          0
  vbounds          :       1458          0          0          0
Propagator Timings :  TotalTime  SetupTime   Presolve  Propagate    ResProp    SB-Prop
  dualfix          :       0.00       0.00       0.00       0.00       0.00       0.00
  genvbounds       :       0.00       0.00       0.00       0.00       0.00       0.00
  nlobbt           :       0.00       0.00       0.00       0.00       0.00       0.00
  obbt             :       0.00       0.00       0.00       0.00       0.00       0.00
  orbitalfixing    :       0.00       0.00       0.00       0.00       0.00       0.00
  probing          :       0.93       0.00       0.93       0.00       0.00       0.00
  pseudoobj        :       0.51       0.00       0.00       0.51       0.00       0.00
  redcost          :       2.42       0.00       0.00       2.42       0.00       0.00
  rootredcost      :       0.00       0.00       0.00       0.00       0.00       0.00
  vbounds          :       0.00       0.00       0.00       0.00       0.00       0.00
Conflict Analysis  :       Time      Calls    Success    DomReds  Conflicts   Literals    Reconvs ReconvLits   Dualrays   Nonzeros   LP Iters   (pool size: [10000,10000])
  propagation      :       0.00         35         35          -        110       13.2          2       18.5          -          -          -
  infeasible LP    :       0.00          0          0          -          0        0.0          0        0.0          0        0.0          0
  bound exceed. LP :       0.03          7          7          -         51       54.2          0        0.0          0        0.0        100
  strong branching :       0.00          0          0          -          0        0.0          0        0.0          -          -          0
  pseudo solution  :       0.00          0          0          -          0        0.0          0        0.0          -          -          -
  applied globally :       0.02          -          -          0        141       11.5          -          -          0          -          -
  applied locally  :          -          -          -          0          0        0.0          -          -          0          -          -
Separators         :   ExecTime  SetupTime      Calls    Cutoffs    DomReds       Cuts    Applied      Conss
  cut pool         :       0.00                    39          -          -        121          -          -    (maximal pool size: 198)
  aggregation      :       0.03       0.00         18          0          0          0          0          0
  cgmip            :       0.00       0.00          0          0          0          0          0          0
  clique           :       2.22       0.00         18          0          0          0         46          0
  closecuts        :       0.00       0.00          0          0          0          0          0          0
  cmir             :       0.00       0.00          0          0          0          0          0          0
  convexproj       :       0.00       0.00          0          0          0          0          0          0
  disjunctive      :       0.00       0.00          0          0          0          0          0          0
  eccuts           :       0.00       0.00          0          0          0          0          0          0
  flowcover        :       0.00       0.00          0          0          0          0          0          0
  gauge            :       0.00       0.00          0          0          0          0          0          0
  gomory           :       0.13       0.00         10          0          0          0          0          0
  impliedbounds    :       0.42       0.00         18          0          0          0          0          0
  intobj           :       0.00       0.00          0          0          0          0          0          0
  mcf              :       0.00       0.00          1          0          0          0          0          0
  oddcycle         :       0.00       0.00          0          0          0          0          0          0
  rapidlearning    :       0.00       0.00          0          0          0          0          0          0
  strongcg         :       0.14       0.00         18          0          0          0          0          0
  zerohalf         :       0.42       0.00         18          0          0          0         13          0
Pricers            :   ExecTime  SetupTime      Calls       Vars
  problem variables:       0.00          -          0          0
Branching Rules    :   ExecTime  SetupTime   BranchLP  BranchExt   BranchPS    Cutoffs    DomReds       Cuts      Conss   Children
  allfullstrong    :       0.00       0.00          0          0          0          0          0          0          0          0
  cloud            :       0.00       0.00          0          0          0          0          0          0          0          0
  distribution     :       0.00       0.00          0          0          0          0          0          0          0          0
  fullstrong       :       0.00       0.00          0          0          0          0          0          0          0          0
  inference        :       0.00       0.00          0          0          0          0          0          0          0          0
  leastinf         :       0.00       0.00          0          0          0          0          0          0          0          0
  lookahead        :       0.00       0.00          0          0          0          0          0          0          0          0
  mostinf          :       0.00       0.00          0          0          0          0          0          0          0          0
  multaggr         :       0.00       0.00          0          0          0          0          0          0          0          0
  nodereopt        :       0.00       0.00          0          0          0          0          0          0          0          0
  pscost           :       0.00       0.00          0          0          0          0          0          0          0          0
  random           :       0.00       0.00          0          0          0          0          0          0          0          0
  relpscost        :       0.44       0.00          3          0          0          1          0          0          4          0
Primal Heuristics  :   ExecTime  SetupTime      Calls      Found       Best
  LP solutions     :       0.00          -          -          0          0
  relax solutions  :       0.00          -          -          0          0
  pseudo solutions :       0.00          -          -          0          0
  strong branching :       0.00          -          -          0          0
  actconsdiving    :       0.00       0.00          0          0          0
  alns             :       0.01       0.00          1          0          0
  bound            :       0.00       0.00          0          0          0
  clique           :       0.02       0.00          1          1          1
  coefdiving       :       0.00       0.00          0          0          0
  completesol      :       0.00       0.00          0          0          0
  conflictdiving   :       0.00       0.00          0          0          0
  crossover        :       0.00       0.00          0          0          0
  dins             :       0.00       0.00          0          0          0
  distributiondivin:       0.00       0.00          0          0          0
  dualval          :       0.00       0.00          0          0          0
  farkasdiving     :       2.07       0.00          1          0          0
  feaspump         :       0.30       0.00          1          1          1
  fixandinfer      :       0.00       0.00          0          0          0
  fracdiving       :       0.00       0.00          0          0          0
  gins             :       0.00       0.00          0          0          0
  guideddiving     :       0.00       0.00          0          0          0
  indicator        :       0.00       0.00          0          0          0
  intdiving        :       0.00       0.00          0          0          0
  intshifting      :       0.00       0.00          0          0          0
  linesearchdiving :       0.00       0.00          0          0          0
  localbranching   :       0.00       0.00          0          0          0
  locks            :       0.00       0.00          1          1          1
  lpface           :       0.00       0.00          0          0          0
  mpec             :       0.00       0.00          0          0          0
  multistart       :       0.00       0.00          0          0          0
  mutation         :       0.00       0.00          0          0          0
  nlpdiving        :       0.00       0.00          0          0          0
  objpscostdiving  :       0.00       0.00          0          0          0
  octane           :       0.00       0.00          0          0          0
  ofins            :       0.00       0.00          0          0          0
  oneopt           :       0.00       0.00          2          0          0
  proximity        :       0.00       0.00          0          0          0
  pscostdiving     :       0.00       0.00          0          0          0
  randrounding     :       0.08       0.00         22          0          0
  rens             :       0.11       0.00          1          0          0
  reoptsols        :       0.00       0.00          0          0          0
  repair           :       0.00       0.00          0          0          0
  rins             :       0.00       0.00          0          0          0
  rootsoldiving    :       0.00       0.00          0          0          0
  rounding         :       0.00       0.00         22          0          0
  shiftandpropagate:       0.00       0.00          0          0          0
  shifting         :       0.00       0.00         22          0          0
  simplerounding   :       0.00       0.00          0          0          0
  subnlp           :       0.00       0.00          0          0          0
  trivial          :       0.00       0.00          2          0          0
  trivialnegation  :       0.00       0.00          0          0          0
  trysol           :       0.00       0.00          0          0          0
  twoopt           :       0.00       0.00          0          0          0
  undercover       :       0.00       0.00          0          0          0
  vbounds          :       0.10       0.00          1          0          0
  veclendiving     :       0.00       0.00          0          0          0
  zeroobj          :       0.00       0.00          0          0          0
  zirounding       :       0.00       0.00          1          0          0
  other solutions  :          -          -          -          0          -
Diving Statistics  :      Calls      Nodes   LP Iters Backtracks  Conflicts   MinDepth   MaxDepth   AvgDepth  RoundSols  NLeafSols  MinSolDpt  MaxSolDpt  AvgSolDpt
  actconsdiving    :          0          -          -          -          -          -          -          -          -          -          -          -          -
  coefdiving       :          0          -          -          -          -          -          -          -          -          -          -          -          -
  conflictdiving   :          0          -          -          -          -          -          -          -          -          -          -          -          -
  distributiondivin:          0          -          -          -          -          -          -          -          -          -          -          -          -
  farkasdiving     :          1         97      21921          0          0         98         98       98.0          0          -          -          -          -
  fracdiving       :          0          -          -          -          -          -          -          -          -          -          -          -          -
  guideddiving     :          0          -          -          -          -          -          -          -          -          -          -          -          -
  linesearchdiving :          0          -          -          -          -          -          -          -          -          -          -          -          -
  pscostdiving     :          0          -          -          -          -          -          -          -          -          -          -          -          -
  veclendiving     :          0          -          -          -          -          -          -          -          -          -          -          -          -
Neighborhoods      :      Calls  SetupTime  SolveTime SolveNodes       Sols       Best       Exp3  EpsGreedy        UCB TgtFixRate  Opt  Inf Node Stal  Sol  Usr Othr Actv
  rens             :          0       0.00       0.00          0          0          0    0.00000   -1.00000    1.00000      0.900    0    0    0    0    0    0    0    1
  rins             :          0       0.00       0.00          0          0          0    0.00000   -1.00000    1.00000      0.900    0    0    0    0    0    0    0    1
  mutation         :          0       0.00       0.00          0          0          0    0.00000   -1.00000    1.00000      0.900    0    0    0    0    0    0    0    1
  localbranching   :          0       0.00       0.00          0          0          0    0.00000   -1.00000    1.00000      0.900    0    0    0    0    0    0    0    1
  crossover        :          0       0.00       0.00          0          0          0    0.00000   -1.00000    1.00000      0.900    0    0    0    0    0    0    0    1
  proximity        :          0       0.00       0.00          0          0          0    0.00000   -1.00000    1.00000      0.900    0    0    0    0    0    0    0    1
  zeroobjective    :          0       0.00       0.00          0          0          0    0.00000   -1.00000    1.00000      0.900    0    0    0    0    0    0    0    1
  dins             :          1       0.01       0.00          0          0          0    0.00000   -1.00000    1.00000      0.700    0    1    0    0    0    0    0    1
LP                 :       Time      Calls Iterations  Iter/call   Iter/sec  Time-0-It Calls-0-It    ItLimit
  primal LP        :       0.03          1          0       0.00       0.00       0.03          1
  dual LP          :       1.60         26      18367     966.68   11479.38       0.01          7
  lex dual LP      :       0.00          0          0       0.00          -
  barrier LP       :       0.00          0          0       0.00          -       0.00          0
  resolve instable :       0.00          0          0       0.00          -
  diving/probing LP:       2.73        101      28192     279.13   10326.74
  strong branching :       0.03         15         95       6.33    3166.67          -          -          0
    (at root node) :          -         15         95       6.33          -
  conflict analysis:       0.01         10        100      10.00   10000.00
B&B Tree           :
  number of runs   :          1
  nodes            :          1 (0 internal, 1 leaves)
  feasible leaves  :          0
  infeas. leaves   :          0
  objective leaves :          1
  nodes (total)    :          1 (0 internal, 1 leaves)
  nodes left       :          0
  max depth        :          0
  max depth (total):          0
  backtracks       :          0 (0.0%)
  early backtracks :          0 (0.0%)
  nodes exc. ref.  :          0 (0.0%)
  delayed cutoffs  :          0
  repropagations   :          0 (0 domain reductions, 0 cutoffs)
  avg switch length:       2.00
  switching time   :       0.00
Root Node          :
  First LP value   : +2.03500000000000e+02
  First LP Iters   :       8629 (13074.24 Iter/sec)
  First LP Time    :       0.66
  Final Dual Bound : +2.14000000000000e+02
  Final Root Iters :      18367
  Root LP Estimate :                     -
Solution           :
  Solutions found  :          3 (3 improvements)
  First Solution   : +2.96000000000000e+02   (in run 1, after 1 nodes, 1.16 seconds, depth 18, found by <clique>)
  Gap First Sol.   :   infinite
  Gap Last Sol.    :       4.89 %
  Primal Bound     : +2.14000000000000e+02   (in run 1, after 1 nodes, 11.05 seconds, depth 0, found by <feaspump>)
  Dual Bound       : +2.14000000000000e+02
  Gap              :       0.00 %
  Avg. Gap         :      31.01 % (433.55 primal-dual integral)
  Tree Data        : 1 nodes (1 visited, 0 inner, 1 leaves, 0 open), progress: 1.0000
Tree Estimation    :       estim       value       trend  resolution      smooth
  wbe              :           1           -           -           -           -
  tree profile     :          -1           -           -           -           -
  gap              :           1     1.00000     1.00000           1           1
  progress         :           1     1.00000     1.00000           1           1
  leaf-frequency   :           1     0.50000     1.00000           1           1
  ssg              :           1     0.00000    -1.00000           1           1
  open-nodes       :           1     0.00000     0.00000           1           1


SCIP> checksol

check best solution
solution is feasible in original problem
Violation          :    absolute    relative
  bounds           : 7.77156e-15 7.77156e-15
  integrality      : 7.77156e-15           -
  LP rows          : 2.48690e-14 2.48690e-14
  constraints      : 2.48690e-14 2.48690e-14

SCIP> write sol /local/tmp/bzfhende-tmpdir/bzfhende.MMMc.430_nug08.scip.M640.enabble_treeprofile.sol

written solution information to file </local/tmp/bzfhende-tmpdir/bzfhende.MMMc.430_nug08.scip.M640.enable_treeprofile.sol>

SCIP> quit

Disabling tree profile data collection
Read MPS: 1
MIP has 1632 vars and 912 constraints
Read SOL: 1
Objective value computed by solver: 214

Integrality tolerance: 1/10000
Linear tolerance: 1/10000
Objective tolerance: 1/10000

Check SOL: Integrality 1 Constraints 1 Objective 1
Maximum violations: Integrality 2.4e-14 Constraints 2.7e-14 Objective 3.88e-13
@04 1566523258
-----------------------------
Fr 23. Aug 03:20:58 CEST 2019
-----------------------------

=ready=
